sat
(:eliminated-applications 2
 :eliminated-vars         1
 :max-memory              17.95
 :memory                  17.95
 :nlsat-conflicts         1
 :nlsat-propagations      10
 :nlsat-stages            4
 :num-allocs              18234
 :rlimit-count            707
 :time                    0.00)
